(declare-datatypes ((List_Int 0)) (((Nil_List_Int ) (Cons_List_Int (Cons_List_Int_0 Int) (Cons_List_Int_1 List_Int)))))
(declare-datatypes ((Queue 0)) (((Q_Queue (Q_Queue_0 List_Int) (Q_Queue_1 List_Int)))))
(declare-fun fn_reverse_Int (List_Int) List_Int)
(declare-fun fn_append_Int (List_Int List_Int) List_Int)
(declare-datatypes ((Option_Int 0)) (((None_Option_Int ) (Some_Option_Int (Some_Option_Int_0 Int)))))
(declare-fun fn_length_Int (List_Int) Int)
(assert (forall ((p0 List_Int) (p1 List_Int)) (! (= (fn_append_Int p0 p1) (ite ((_ is Nil_List_Int) p0) p1 (Cons_List_Int (Cons_List_Int_0 p0) (fn_append_Int (Cons_List_Int_1 p0) p1)))) :pattern ((fn_append_Int p0 p1)))))
(assert (forall ((p0 List_Int)) (! (= (fn_reverse_Int p0) (ite ((_ is Nil_List_Int) p0) Nil_List_Int (fn_append_Int (fn_reverse_Int (Cons_List_Int_1 p0)) (Cons_List_Int (Cons_List_Int_0 p0) Nil_List_Int)))) :pattern ((fn_reverse_Int p0)))))
(assert (forall ((p0 List_Int)) (! (= (fn_length_Int p0) (ite ((_ is Nil_List_Int) p0) 0 (+ 1 (fn_length_Int (Cons_List_Int_1 p0))))) :pattern ((fn_length_Int p0)))))
(assert (forall ((q0 Int) (q1 List_Int) (q2 List_Int)) (= (fn_append_Int (Q_Queue_0 (ite ((_ is Nil_List_Int) (Q_Queue_0 (Q_Queue (Cons_List_Int q0 q1) q2))) (ite ((_ is Nil_List_Int) (fn_reverse_Int (Q_Queue_1 (Q_Queue (Cons_List_Int q0 q1) q2)))) (Q_Queue Nil_List_Int Nil_List_Int) (Q_Queue (Cons_List_Int_1 (fn_reverse_Int (Q_Queue_1 (Q_Queue (Cons_List_Int q0 q1) q2)))) Nil_List_Int)) (Q_Queue (Cons_List_Int_1 (Q_Queue_0 (Q_Queue (Cons_List_Int q0 q1) q2))) (Q_Queue_1 (Q_Queue (Cons_List_Int q0 q1) q2))))) (fn_reverse_Int (Q_Queue_1 (ite ((_ is Nil_List_Int) (Q_Queue_0 (Q_Queue (Cons_List_Int q0 q1) q2))) (ite ((_ is Nil_List_Int) (fn_reverse_Int (Q_Queue_1 (Q_Queue (Cons_List_Int q0 q1) q2)))) (Q_Queue Nil_List_Int Nil_List_Int) (Q_Queue (Cons_List_Int_1 (fn_reverse_Int (Q_Queue_1 (Q_Queue (Cons_List_Int q0 q1) q2)))) Nil_List_Int)) (Q_Queue (Cons_List_Int_1 (Q_Queue_0 (Q_Queue (Cons_List_Int q0 q1) q2))) (Q_Queue_1 (Q_Queue (Cons_List_Int q0 q1) q2))))))) (fn_append_Int q1 (fn_reverse_Int q2)))))
(assert (forall ((q0 List_Int)) (= (fn_append_Int q0 Nil_List_Int) q0)))
(assert (forall ((q0 List_Int) (q1 List_Int) (q2 List_Int)) (= (fn_append_Int (fn_append_Int q0 q1) q2) (fn_append_Int q0 (fn_append_Int q1 q2)))))
(assert (forall ((q0 List_Int)) (= (fn_reverse_Int (fn_reverse_Int q0)) q0)))
(assert (forall ((q0 List_Int) (q1 List_Int)) (= (fn_reverse_Int (fn_append_Int q0 q1)) (fn_append_Int (fn_reverse_Int q1) (fn_reverse_Int q0)))))
(assert (forall ((q0 List_Int) (q1 List_Int)) (= (fn_append_Int (Q_Queue_0 (Q_Queue q0 q1)) (fn_reverse_Int (Q_Queue_1 (Q_Queue q0 q1)))) (fn_append_Int q0 (fn_reverse_Int q1)))))
(assert (forall ((q0 List_Int)) (= (fn_append_Int (Q_Queue_0 (Q_Queue q0 Nil_List_Int)) (fn_reverse_Int (Q_Queue_1 (Q_Queue q0 Nil_List_Int)))) q0)))
(assert (forall ((q0 List_Int)) (= (fn_append_Int (Q_Queue_0 (Q_Queue Nil_List_Int q0)) (fn_reverse_Int (Q_Queue_1 (Q_Queue Nil_List_Int q0)))) (fn_reverse_Int q0))))
(assert (= (fn_append_Int (Q_Queue_0 (Q_Queue (Cons_List_Int 1 Nil_List_Int) (Cons_List_Int 3 (Cons_List_Int 2 Nil_List_Int)))) (fn_reverse_Int (Q_Queue_1 (Q_Queue (Cons_List_Int 1 Nil_List_Int) (Cons_List_Int 3 (Cons_List_Int 2 Nil_List_Int)))))) (Cons_List_Int 1 (Cons_List_Int 2 (Cons_List_Int 3 Nil_List_Int)))))
(assert (not (= (fn_append_Int (Q_Queue_0 (ite ((_ is Nil_List_Int) (Q_Queue_0 (Q_Queue Nil_List_Int Nil_List_Int))) (ite ((_ is Nil_List_Int) (fn_reverse_Int (Q_Queue_1 (Q_Queue Nil_List_Int Nil_List_Int)))) (Q_Queue Nil_List_Int Nil_List_Int) (Q_Queue (Cons_List_Int_1 (fn_reverse_Int (Q_Queue_1 (Q_Queue Nil_List_Int Nil_List_Int)))) Nil_List_Int)) (Q_Queue (Cons_List_Int_1 (Q_Queue_0 (Q_Queue Nil_List_Int Nil_List_Int))) (Q_Queue_1 (Q_Queue Nil_List_Int Nil_List_Int))))) (fn_reverse_Int (Q_Queue_1 (ite ((_ is Nil_List_Int) (Q_Queue_0 (Q_Queue Nil_List_Int Nil_List_Int))) (ite ((_ is Nil_List_Int) (fn_reverse_Int (Q_Queue_1 (Q_Queue Nil_List_Int Nil_List_Int)))) (Q_Queue Nil_List_Int Nil_List_Int) (Q_Queue (Cons_List_Int_1 (fn_reverse_Int (Q_Queue_1 (Q_Queue Nil_List_Int Nil_List_Int)))) Nil_List_Int)) (Q_Queue (Cons_List_Int_1 (Q_Queue_0 (Q_Queue Nil_List_Int Nil_List_Int))) (Q_Queue_1 (Q_Queue Nil_List_Int Nil_List_Int))))))) Nil_List_Int)))
(check-sat)
